10	5
0	5	5	4	2	1	3
1	1	9
2	1	8
3	1	10
4	0
5	2	7	6
6	1	8
7	1	8
8	2	11	10
9	1	6
10	1	11
11	0
0	0	0	0	0	0	0
1	4	4	0	0	0	4
2	8	1	4	3	4	2
3	10	4	5	5	1	5
4	4	2	3	2	0	1
5	1	4	2	3	1	3
6	5	5	0	4	0	0
7	7	0	3	1	0	4
8	5	1	4	0	1	4
9	3	5	4	3	2	5
10	3	0	5	5	0	2
11	0	0	0	0	0	0
9	9	8	6	9
